\Problem name: 

Minimize
OBJROW:
Subject To
Bounds
 0 <= var(1) <= 1
 0 <= var(2) <= 1
 0 <= var(3) <= 1
 0 <= var(4) <= 1
 0 <= var(5) <= 1
 0 <= var(6) <= 1
 0 <= var(7) <= 1
 0 <= var(8) <= 1
 0 <= var(9) <= 1
 0 <= var(10) <= 1
 -10 <= zCost <= 10
Integers
var(1) var(2) var(3) var(4) var(5) var(6) var(7) var(8) var(9) var(10) 
zCost 
End
